NAME osmosis_srl_ilp
* Max problem is converted into Min one
ROWS
 N  OBJ
 L  constraint1_1100
 L  constraint1_3090
 L  constraint1_530
 L  constraint1_820
 L  constraint1_3060
 L  constraint1_3020
 L  constraint1_5160
 L  constraint1_2960
 L  constraint1_6420
 L  constraint1_6960
 L  constraint1_520
 L  constraint1_6190
 L  constraint1_5040
 L  constraint1_5352
 L  constraint1_5351
 L  constraint1_5353
 L  constraint1_5350
 L  constraint1_1010
 L  constraint1_7280
 L  constraint1_3340
 L  constraint1_7270
 L  constraint1_1856
 L  constraint1_1850
 L  constraint1_1853
 L  constraint1_1851
 L  constraint1_1854
 L  constraint1_1852
 L  constraint1_6070
 L  constraint1_2460
 L  constraint2_1450
 L  constraint2_1451
 L  constraint2_1452
 L  constraint2_1453
 L  constraint2_1100
 L  constraint2_1101
 L  constraint2_1102
 L  constraint2_1103
 L  constraint2_70
 L  constraint2_71
 L  constraint2_72
 L  constraint2_73
 L  constraint2_3090
 L  constraint2_3091
 L  constraint2_3092
 L  constraint2_3093
 L  constraint2_5870
 L  constraint2_5871
 L  constraint2_5872
 L  constraint2_5873
 L  constraint2_530
 L  constraint2_531
 L  constraint2_532
 L  constraint2_533
 L  constraint2_820
 L  constraint2_821
 L  constraint2_822
 L  constraint2_823
 L  constraint2_3060
 L  constraint2_3061
 L  constraint2_3062
 L  constraint2_3063
 L  constraint2_3020
 L  constraint2_3021
 L  constraint2_3022
 L  constraint2_3023
 L  constraint2_5160
 L  constraint2_5161
 L  constraint2_5162
 L  constraint2_5163
 L  constraint2_2960
 L  constraint2_2961
 L  constraint2_2962
 L  constraint2_2963
 L  constraint2_6420
 L  constraint2_6421
 L  constraint2_6422
 L  constraint2_6423
 L  constraint2_6960
 L  constraint2_6961
 L  constraint2_6962
 L  constraint2_6963
 L  constraint2_4590
 L  constraint2_4591
 L  constraint2_4592
 L  constraint2_4593
 L  constraint2_520
 L  constraint2_521
 L  constraint2_522
 L  constraint2_523
 L  constraint2_360
 L  constraint2_361
 L  constraint2_362
 L  constraint2_363
 L  constraint2_6190
 L  constraint2_6191
 L  constraint2_6192
 L  constraint2_6193
 L  constraint2_5040
 L  constraint2_5041
 L  constraint2_5042
 L  constraint2_5043
 L  constraint2_540
 L  constraint2_541
 L  constraint2_542
 L  constraint2_543
 L  constraint2_6990
 L  constraint2_6991
 L  constraint2_6992
 L  constraint2_6993
 L  constraint2_5350
 L  constraint2_5351
 L  constraint2_5352
 L  constraint2_5353
 L  constraint2_1010
 L  constraint2_1011
 L  constraint2_1012
 L  constraint2_1013
 L  constraint2_7280
 L  constraint2_7281
 L  constraint2_7282
 L  constraint2_7283
 L  constraint2_3340
 L  constraint2_3341
 L  constraint2_3342
 L  constraint2_3343
 L  constraint2_7270
 L  constraint2_7271
 L  constraint2_7272
 L  constraint2_7273
 L  constraint2_1850
 L  constraint2_1851
 L  constraint2_1852
 L  constraint2_1853
 L  constraint2_6070
 L  constraint2_6071
 L  constraint2_6072
 L  constraint2_6073
 L  constraint2_2460
 L  constraint2_2461
 L  constraint2_2462
 L  constraint2_2463
COLUMNS
    MARKER    'MARKER'                 'INTORG'
    Z_110_0_0  OBJ       -1.0421486502845936e-02
    Z_110_0_0  constraint1_1100  1
    Z_110_0_0  constraint2_1100  1
    Z_110_0_1  OBJ       -7.4668484978351870e-03
    Z_110_0_1  constraint1_1100  1
    Z_110_0_1  constraint2_1101  1
    Z_110_0_2  OBJ       -1.4052211901101686e-03
    Z_110_0_2  constraint1_1100  1
    Z_110_0_2  constraint2_1102  1
    Z_110_0_3  OBJ       -6.2274149600375771e-02
    Z_110_0_3  constraint1_1100  1
    Z_110_0_3  constraint2_1103  1
    Z_110_0_4  OBJ       -8.1843229420883290e-01
    Z_110_0_4  constraint1_1100  1
    Z_309_0_0  OBJ       -2.5525165982038118e-04
    Z_309_0_0  constraint1_3090  1
    Z_309_0_0  constraint2_3090  1
    Z_309_0_1  OBJ       -6.3008643022770814e-04
    Z_309_0_1  constraint1_3090  1
    Z_309_0_1  constraint2_3091  1
    Z_309_0_2  OBJ       -8.3008453902879487e-01
    Z_309_0_2  constraint1_3090  1
    Z_309_0_2  constraint2_3092  1
    Z_309_0_3  OBJ       -2.3307890054340480e-03
    Z_309_0_3  constraint1_3090  1
    Z_309_0_3  constraint2_3093  1
    Z_309_0_4  OBJ       -6.6699333875722952e-02
    Z_309_0_4  constraint1_3090  1
    Z_53_0_0  OBJ       -2.5914277354149419e-05
    Z_53_0_0  constraint1_530  1
    Z_53_0_0  constraint2_530  1
    Z_53_0_1  OBJ       -3.7371530843600580e-03
    Z_53_0_1  constraint1_530  1
    Z_53_0_1  constraint2_531  1
    Z_53_0_2  OBJ       -8.7154782324234514e-01
    Z_53_0_2  constraint1_530  1
    Z_53_0_2  constraint2_532  1
    Z_53_0_3  OBJ       -6.7853257675169580e-03
    Z_53_0_3  constraint1_530  1
    Z_53_0_3  constraint2_533  1
    Z_53_0_4  OBJ       -1.7903783628423670e-02
    Z_53_0_4  constraint1_530  1
    Z_82_0_0  OBJ       -1.2169755907150998e-03
    Z_82_0_0  constraint1_820  1
    Z_82_0_0  constraint2_820  1
    Z_82_0_1  OBJ       -1.0788390609084324e-03
    Z_82_0_1  constraint1_820  1
    Z_82_0_1  constraint2_821  1
    Z_82_0_2  OBJ       -7.5982285162999130e-01
    Z_82_0_2  constraint1_820  1
    Z_82_0_2  constraint2_822  1
    Z_82_0_3  OBJ       -2.0865185760370517e-03
    Z_82_0_3  constraint1_820  1
    Z_82_0_3  constraint2_823  1
    Z_82_0_4  OBJ       -1.3579481514234795e-01
    Z_82_0_4  constraint1_820  1
    Z_306_0_0  OBJ       -9.9171393568682096e-04
    Z_306_0_0  constraint1_3060  1
    Z_306_0_0  constraint2_3060  1
    Z_306_0_1  OBJ       -1.7608398152363217e-03
    Z_306_0_1  constraint1_3060  1
    Z_306_0_1  constraint2_3061  1
    Z_306_0_2  OBJ       -6.2483975403170844e-01
    Z_306_0_2  constraint1_3060  1
    Z_306_0_2  constraint2_3062  1
    Z_306_0_3  OBJ       -7.5038352687698106e-03
    Z_306_0_3  constraint1_3060  1
    Z_306_0_3  constraint2_3063  1
    Z_306_0_4  OBJ       -2.6490385694859864e-01
    Z_306_0_4  constraint1_3060  1
    Z_302_0_0  OBJ       -3.5651595104434718e-04
    Z_302_0_0  constraint1_3020  1
    Z_302_0_0  constraint2_3020  1
    Z_302_0_1  OBJ       -1.9069523037515248e-03
    Z_302_0_1  constraint1_3020  1
    Z_302_0_1  constraint2_3021  1
    Z_302_0_2  OBJ       -6.3266753040029600e-01
    Z_302_0_2  constraint1_3020  1
    Z_302_0_2  constraint2_3022  1
    Z_302_0_3  OBJ       -9.2896991626065109e-04
    Z_302_0_3  constraint1_3020  1
    Z_302_0_3  constraint2_3023  1
    Z_302_0_4  OBJ       -2.6414003142864756e-01
    Z_302_0_4  constraint1_3020  1
    Z_516_0_0  OBJ       -4.7698840638572631e-04
    Z_516_0_0  constraint1_5160  1
    Z_516_0_0  constraint2_5160  1
    Z_516_0_1  OBJ       -5.7068597785038975e-03
    Z_516_0_1  constraint1_5160  1
    Z_516_0_1  constraint2_5161  1
    Z_516_0_2  OBJ       -7.7019246695462151e-01
    Z_516_0_2  constraint1_5160  1
    Z_516_0_2  constraint2_5162  1
    Z_516_0_3  OBJ       -2.4909815049925016e-03
    Z_516_0_3  constraint1_5160  1
    Z_516_0_3  constraint2_5163  1
    Z_516_0_4  OBJ       -1.2113270335549636e-01
    Z_516_0_4  constraint1_5160  1
    Z_296_0_0  OBJ       -3.0046549291566199e-04
    Z_296_0_0  constraint1_2960  1
    Z_296_0_0  constraint2_2960  1
    Z_296_0_1  OBJ       -2.4891979338590164e-03
    Z_296_0_1  constraint1_2960  1
    Z_296_0_1  constraint2_2961  1
    Z_296_0_2  OBJ       -6.5084151822160941e-01
    Z_296_0_2  constraint1_2960  1
    Z_296_0_2  constraint2_2962  1
    Z_296_0_3  OBJ       -7.0885152473899372e-04
    Z_296_0_3  constraint1_2960  1
    Z_296_0_3  constraint2_2963  1
    Z_296_0_4  OBJ       -2.4565996682687702e-01
    Z_296_0_4  constraint1_2960  1
    Z_642_0_0  OBJ       -2.6772729160670023e-03
    Z_642_0_0  constraint1_6420  1
    Z_642_0_0  constraint2_6420  1
    Z_642_0_1  OBJ       -4.1411111779531794e-03
    Z_642_0_1  constraint1_6420  1
    Z_642_0_1  constraint2_6421  1
    Z_642_0_2  OBJ       -6.6504955449343139e-01
    Z_642_0_2  constraint1_6420  1
    Z_642_0_2  constraint2_6422  1
    Z_642_0_3  OBJ       -2.2532318245834892e-03
    Z_642_0_3  constraint1_6420  1
    Z_642_0_3  constraint2_6423  1
    Z_642_0_4  OBJ       -2.2587882958796499e-01
    Z_642_0_4  constraint1_6420  1
    Z_696_0_0  OBJ       -4.5669792294413883e-03
    Z_696_0_0  constraint1_6960  1
    Z_696_0_0  constraint2_6960  1
    Z_696_0_1  OBJ       -2.9895079869737607e-03
    Z_696_0_1  constraint1_6960  1
    Z_696_0_1  constraint2_6961  1
    Z_696_0_2  OBJ       -6.3481242961441727e-03
    Z_696_0_2  constraint1_6960  1
    Z_696_0_2  constraint2_6962  1
    Z_696_0_3  OBJ       -1.9197003136974539e-01
    Z_696_0_3  constraint1_6960  1
    Z_696_0_3  constraint2_6963  1
    Z_696_0_4  OBJ       -6.9412535711769552e-01
    Z_696_0_4  constraint1_6960  1
    Z_52_0_0  OBJ       -8.2244605283051189e-04
    Z_52_0_0  constraint1_520  1
    Z_52_0_0  constraint2_520  1
    Z_52_0_1  OBJ       -5.4515154131816760e-03
    Z_52_0_1  constraint1_520  1
    Z_52_0_1  constraint2_521  1
    Z_52_0_2  OBJ       -7.0516306651642480e-01
    Z_52_0_2  constraint1_520  1
    Z_52_0_2  constraint2_522  1
    Z_52_0_3  OBJ       -1.3716474218659238e-03
    Z_52_0_3  constraint1_520  1
    Z_52_0_3  constraint2_523  1
    Z_52_0_4  OBJ       -1.8719132459569729e-01
    Z_52_0_4  constraint1_520  1
    Z_619_0_0  OBJ       -5.4990311201200863e-04
    Z_619_0_0  constraint1_6190  1
    Z_619_0_0  constraint2_6190  1
    Z_619_0_1  OBJ       -3.8679927297258910e-03
    Z_619_0_1  constraint1_6190  1
    Z_619_0_1  constraint2_6191  1
    Z_619_0_2  OBJ       -7.8350081183753140e-01
    Z_619_0_2  constraint1_6190  1
    Z_619_0_2  constraint2_6192  1
    Z_619_0_3  OBJ       -1.6671789171808350e-03
    Z_619_0_3  constraint1_6190  1
    Z_619_0_3  constraint2_6193  1
    Z_619_0_4  OBJ       -1.1041411340354981e-01
    Z_619_0_4  constraint1_6190  1
    Z_504_0_0  OBJ       -8.8160049272370544e-04
    Z_504_0_0  constraint1_5040  1
    Z_504_0_0  constraint2_5040  1
    Z_504_0_1  OBJ       -1.5332321519240318e-03
    Z_504_0_1  constraint1_5040  1
    Z_504_0_1  constraint2_5041  1
    Z_504_0_2  OBJ       -6.0145654653264413e-01
    Z_504_0_2  constraint1_5040  1
    Z_504_0_2  constraint2_5042  1
    Z_504_0_3  OBJ       -1.1074504888001021e-02
    Z_504_0_3  constraint1_5040  1
    Z_504_0_3  constraint2_5043  1
    Z_504_0_4  OBJ       -2.8505411593470714e-01
    Z_504_0_4  constraint1_5040  1
    Z_535_2_0  OBJ       -9.0100624713721947e-02
    Z_535_2_0  constraint1_5352  1
    Z_535_2_0  constraint2_5350  1
    Z_535_2_1  OBJ       -6.5470927728164111e-02
    Z_535_2_1  constraint1_5352  1
    Z_535_2_1  constraint2_5351  1
    Z_535_2_2  OBJ       -2.3149575305206659e-03
    Z_535_2_2  constraint1_5352  1
    Z_535_2_2  constraint2_5352  1
    Z_535_2_3  OBJ       -2.3318368333477718e-01
    Z_535_2_3  constraint1_5352  1
    Z_535_2_3  constraint2_5353  1
    Z_535_2_4  OBJ       -5.0892980669281607e-01
    Z_535_2_4  constraint1_5352  1
    Z_535_1_0  OBJ       -4.7698840638572631e-04
    Z_535_1_0  constraint1_5351  1
    Z_535_1_0  constraint2_5350  1
    Z_535_1_1  OBJ       -5.7068597785038975e-03
    Z_535_1_1  constraint1_5351  1
    Z_535_1_1  constraint2_5351  1
    Z_535_1_2  OBJ       -7.7019246695462151e-01
    Z_535_1_2  constraint1_5351  1
    Z_535_1_2  constraint2_5352  1
    Z_535_1_3  OBJ       -2.4909815049925016e-03
    Z_535_1_3  constraint1_5351  1
    Z_535_1_3  constraint2_5353  1
    Z_535_1_4  OBJ       -1.2113270335549636e-01
    Z_535_1_4  constraint1_5351  1
    Z_535_3_0  OBJ       -3.2508512721655919e-02
    Z_535_3_0  constraint1_5353  1
    Z_535_3_0  constraint2_5350  1
    Z_535_3_1  OBJ       -2.6149774323657164e-02
    Z_535_3_1  constraint1_5353  1
    Z_535_3_1  constraint2_5351  1
    Z_535_3_2  OBJ       -1.3810145429109064e-02
    Z_535_3_2  constraint1_5353  1
    Z_535_3_2  constraint2_5352  1
    Z_535_3_3  OBJ       -7.2493889721862562e-02
    Z_535_3_3  constraint1_5353  1
    Z_535_3_3  constraint2_5353  1
    Z_535_3_4  OBJ       -7.5503767780371545e-01
    Z_535_3_4  constraint1_5353  1
    Z_535_0_0  OBJ       -4.7698840638572631e-04
    Z_535_0_0  constraint1_5350  1
    Z_535_0_0  constraint2_5350  1
    Z_535_0_1  OBJ       -5.7068597785038975e-03
    Z_535_0_1  constraint1_5350  1
    Z_535_0_1  constraint2_5351  1
    Z_535_0_2  OBJ       -7.7019246695462151e-01
    Z_535_0_2  constraint1_5350  1
    Z_535_0_2  constraint2_5352  1
    Z_535_0_3  OBJ       -2.4909815049925016e-03
    Z_535_0_3  constraint1_5350  1
    Z_535_0_3  constraint2_5353  1
    Z_535_0_4  OBJ       -1.2113270335549636e-01
    Z_535_0_4  constraint1_5350  1
    Z_101_0_0  OBJ       -1.6290685376757700e-03
    Z_101_0_0  constraint1_1010  1
    Z_101_0_0  constraint2_1010  1
    Z_101_0_1  OBJ       -1.2222203606562538e-03
    Z_101_0_1  constraint1_1010  1
    Z_101_0_1  constraint2_1011  1
    Z_101_0_2  OBJ       -5.3829823230302993e-03
    Z_101_0_2  constraint1_1010  1
    Z_101_0_2  constraint2_1012  1
    Z_101_0_3  OBJ       -4.1596184454797802e-01
    Z_101_0_3  constraint1_1010  1
    Z_101_0_3  constraint2_1013  1
    Z_101_0_4  OBJ       -4.7580388423065978e-01
    Z_101_0_4  constraint1_1010  1
    Z_728_0_0  OBJ       -3.9932868513222521e-04
    Z_728_0_0  constraint1_7280  1
    Z_728_0_0  constraint2_7280  1
    Z_728_0_1  OBJ       -2.6546857444093019e-03
    Z_728_0_1  constraint1_7280  1
    Z_728_0_1  constraint2_7281  1
    Z_728_0_2  OBJ       -8.0891173347060841e-01
    Z_728_0_2  constraint1_7280  1
    Z_728_0_2  constraint2_7282  1
    Z_728_0_3  OBJ       -3.5670243227407280e-03
    Z_728_0_3  constraint1_7280  1
    Z_728_0_3  constraint2_7283  1
    Z_728_0_4  OBJ       -8.4467227777109341e-02
    Z_728_0_4  constraint1_7280  1
    Z_334_0_0  OBJ       -2.0776602960904120e-03
    Z_334_0_0  constraint1_3340  1
    Z_334_0_0  constraint2_3340  1
    Z_334_0_1  OBJ       -1.3634092332019472e-03
    Z_334_0_1  constraint1_3340  1
    Z_334_0_1  constraint2_3341  1
    Z_334_0_2  OBJ       -3.5460290472189779e-03
    Z_334_0_2  constraint1_3340  1
    Z_334_0_2  constraint2_3342  1
    Z_334_0_3  OBJ       -4.1811072469682342e-01
    Z_334_0_3  constraint1_3340  1
    Z_334_0_3  constraint2_3343  1
    Z_334_0_4  OBJ       -4.7490217672666529e-01
    Z_334_0_4  constraint1_3340  1
    Z_727_0_0  OBJ       -3.5651595104434718e-04
    Z_727_0_0  constraint1_7270  1
    Z_727_0_0  constraint2_7270  1
    Z_727_0_1  OBJ       -1.9069523037515248e-03
    Z_727_0_1  constraint1_7270  1
    Z_727_0_1  constraint2_7271  1
    Z_727_0_2  OBJ       -6.3266753040029600e-01
    Z_727_0_2  constraint1_7270  1
    Z_727_0_2  constraint2_7272  1
    Z_727_0_3  OBJ       -9.2896991626065109e-04
    Z_727_0_3  constraint1_7270  1
    Z_727_0_3  constraint2_7273  1
    Z_727_0_4  OBJ       -2.6414003142864756e-01
    Z_727_0_4  constraint1_7270  1
    Z_185_6_0  OBJ       -1.6832564262002608e-01
    Z_185_6_0  constraint1_1856  1
    Z_185_6_0  constraint2_1850  1
    Z_185_6_1  OBJ       -4.4934484726420892e-03
    Z_185_6_1  constraint1_1856  1
    Z_185_6_1  constraint2_1851  1
    Z_185_6_2  OBJ       -6.1841065748800626e-02
    Z_185_6_2  constraint1_1856  1
    Z_185_6_2  constraint2_1852  1
    Z_185_6_3  OBJ       -1.7153459808311081e-02
    Z_185_6_3  constraint1_1856  1
    Z_185_6_3  constraint2_1853  1
    Z_185_6_4  OBJ       -6.4818638335022016e-01
    Z_185_6_4  constraint1_1856  1
    Z_185_0_0  OBJ       -2.1536286804056740e-02
    Z_185_0_0  constraint1_1850  1
    Z_185_0_0  constraint2_1850  1
    Z_185_0_1  OBJ       -2.4393120848561611e-03
    Z_185_0_1  constraint1_1850  1
    Z_185_0_1  constraint2_1851  1
    Z_185_0_2  OBJ       -1.1221936698336203e-01
    Z_185_0_2  constraint1_1850  1
    Z_185_0_2  constraint2_1852  1
    Z_185_0_3  OBJ       -1.7416512512527210e-01
    Z_185_0_3  constraint1_1850  1
    Z_185_0_3  constraint2_1853  1
    Z_185_0_4  OBJ       -5.8963990900245311e-01
    Z_185_0_4  constraint1_1850  1
    Z_185_3_0  OBJ       -2.1536286804056740e-02
    Z_185_3_0  constraint1_1853  1
    Z_185_3_0  constraint2_1850  1
    Z_185_3_1  OBJ       -2.4393120848561611e-03
    Z_185_3_1  constraint1_1853  1
    Z_185_3_1  constraint2_1851  1
    Z_185_3_2  OBJ       -1.1221936698336203e-01
    Z_185_3_2  constraint1_1853  1
    Z_185_3_2  constraint2_1852  1
    Z_185_3_3  OBJ       -1.7416512512527210e-01
    Z_185_3_3  constraint1_1853  1
    Z_185_3_3  constraint2_1853  1
    Z_185_3_4  OBJ       -5.8963990900245311e-01
    Z_185_3_4  constraint1_1853  1
    Z_185_1_0  OBJ       -2.1536286804056740e-02
    Z_185_1_0  constraint1_1851  1
    Z_185_1_0  constraint2_1850  1
    Z_185_1_1  OBJ       -2.4393120848561611e-03
    Z_185_1_1  constraint1_1851  1
    Z_185_1_1  constraint2_1851  1
    Z_185_1_2  OBJ       -1.1221936698336203e-01
    Z_185_1_2  constraint1_1851  1
    Z_185_1_2  constraint2_1852  1
    Z_185_1_3  OBJ       -1.7416512512527210e-01
    Z_185_1_3  constraint1_1851  1
    Z_185_1_3  constraint2_1853  1
    Z_185_1_4  OBJ       -5.8963990900245311e-01
    Z_185_1_4  constraint1_1851  1
    Z_185_4_0  OBJ       -7.7348639515768328e-02
    Z_185_4_0  constraint1_1854  1
    Z_185_4_0  constraint2_1850  1
    Z_185_4_1  OBJ       -5.8934407597101009e-02
    Z_185_4_1  constraint1_1854  1
    Z_185_4_1  constraint2_1851  1
    Z_185_4_2  OBJ       -1.9658391569968665e-03
    Z_185_4_2  constraint1_1854  1
    Z_185_4_2  constraint2_1852  1
    Z_185_4_3  OBJ       -2.0680351928789173e-01
    Z_185_4_3  constraint1_1854  1
    Z_185_4_3  constraint2_1853  1
    Z_185_4_4  OBJ       -5.5494759444224218e-01
    Z_185_4_4  constraint1_1854  1
    Z_185_2_0  OBJ       -1.6577394728477395e-04
    Z_185_2_0  constraint1_1852  1
    Z_185_2_0  constraint2_1850  1
    Z_185_2_1  OBJ       -1.2474016953616207e-03
    Z_185_2_1  constraint1_1852  1
    Z_185_2_1  constraint2_1851  1
    Z_185_2_2  OBJ       -5.4618513197708718e-01
    Z_185_2_2  constraint1_1852  1
    Z_185_2_2  constraint2_1852  1
    Z_185_2_3  OBJ       -5.3515345364894677e-04
    Z_185_2_3  constraint1_1852  1
    Z_185_2_3  constraint2_1853  1
    Z_185_2_4  OBJ       -3.5186653892661768e-01
    Z_185_2_4  constraint1_1852  1
    Z_607_0_0  OBJ       -4.7698840638572631e-04
    Z_607_0_0  constraint1_6070  1
    Z_607_0_0  constraint2_6070  1
    Z_607_0_1  OBJ       -5.7068597785038975e-03
    Z_607_0_1  constraint1_6070  1
    Z_607_0_1  constraint2_6071  1
    Z_607_0_2  OBJ       -7.7019246695462151e-01
    Z_607_0_2  constraint1_6070  1
    Z_607_0_2  constraint2_6072  1
    Z_607_0_3  OBJ       -2.4909815049925016e-03
    Z_607_0_3  constraint1_6070  1
    Z_607_0_3  constraint2_6073  1
    Z_607_0_4  OBJ       -1.2113270335549636e-01
    Z_607_0_4  constraint1_6070  1
    Z_246_0_0  OBJ       -6.8018237791256017e-05
    Z_246_0_0  constraint1_2460  1
    Z_246_0_0  constraint2_2460  1
    Z_246_0_1  OBJ       -1.0184446393849108e-02
    Z_246_0_1  constraint1_2460  1
    Z_246_0_1  constraint2_2461  1
    Z_246_0_2  OBJ       -6.8466101112272415e-01
    Z_246_0_2  constraint1_2460  1
    Z_246_0_2  constraint2_2462  1
    Z_246_0_3  OBJ       -1.7308526726048431e-03
    Z_246_0_3  constraint1_2460  1
    Z_246_0_3  constraint2_2463  1
    Z_246_0_4  OBJ       -2.0335567157303061e-01
    Z_246_0_4  constraint1_2460  1
    MARKER    'MARKER'                 'INTEND'
RHS
    RHS1      constraint1_1100  1
    RHS1      constraint1_3090  1
    RHS1      constraint1_530  1
    RHS1      constraint1_820  1
    RHS1      constraint1_3060  1
    RHS1      constraint1_3020  1
    RHS1      constraint1_5160  1
    RHS1      constraint1_2960  1
    RHS1      constraint1_6420  1
    RHS1      constraint1_6960  1
    RHS1      constraint1_520  1
    RHS1      constraint1_6190  1
    RHS1      constraint1_5040  1
    RHS1      constraint1_5352  1
    RHS1      constraint1_5351  1
    RHS1      constraint1_5353  1
    RHS1      constraint1_5350  1
    RHS1      constraint1_1010  1
    RHS1      constraint1_7280  1
    RHS1      constraint1_3340  1
    RHS1      constraint1_7270  1
    RHS1      constraint1_1856  1
    RHS1      constraint1_1850  1
    RHS1      constraint1_1853  1
    RHS1      constraint1_1851  1
    RHS1      constraint1_1854  1
    RHS1      constraint1_1852  1
    RHS1      constraint1_6070  1
    RHS1      constraint1_2460  1
    RHS1      constraint2_1450  1
    RHS1      constraint2_1451  1
    RHS1      constraint2_1452  1
    RHS1      constraint2_1453  1
    RHS1      constraint2_1100  1
    RHS1      constraint2_1101  1
    RHS1      constraint2_1102  1
    RHS1      constraint2_1103  1
    RHS1      constraint2_70  1
    RHS1      constraint2_71  1
    RHS1      constraint2_72  1
    RHS1      constraint2_73  1
    RHS1      constraint2_3090  1
    RHS1      constraint2_3091  1
    RHS1      constraint2_3092  1
    RHS1      constraint2_3093  1
    RHS1      constraint2_5870  1
    RHS1      constraint2_5871  1
    RHS1      constraint2_5872  1
    RHS1      constraint2_5873  1
    RHS1      constraint2_530  1
    RHS1      constraint2_531  1
    RHS1      constraint2_532  1
    RHS1      constraint2_533  1
    RHS1      constraint2_820  1
    RHS1      constraint2_821  1
    RHS1      constraint2_822  1
    RHS1      constraint2_823  1
    RHS1      constraint2_3060  1
    RHS1      constraint2_3061  1
    RHS1      constraint2_3062  1
    RHS1      constraint2_3063  1
    RHS1      constraint2_3020  1
    RHS1      constraint2_3021  1
    RHS1      constraint2_3022  1
    RHS1      constraint2_3023  1
    RHS1      constraint2_5160  1
    RHS1      constraint2_5161  1
    RHS1      constraint2_5162  1
    RHS1      constraint2_5163  1
    RHS1      constraint2_2960  1
    RHS1      constraint2_2961  1
    RHS1      constraint2_2962  1
    RHS1      constraint2_2963  1
    RHS1      constraint2_6420  1
    RHS1      constraint2_6421  1
    RHS1      constraint2_6422  1
    RHS1      constraint2_6423  1
    RHS1      constraint2_6960  1
    RHS1      constraint2_6961  1
    RHS1      constraint2_6962  1
    RHS1      constraint2_6963  1
    RHS1      constraint2_4590  1
    RHS1      constraint2_4591  1
    RHS1      constraint2_4592  1
    RHS1      constraint2_4593  1
    RHS1      constraint2_520  1
    RHS1      constraint2_521  1
    RHS1      constraint2_522  1
    RHS1      constraint2_523  1
    RHS1      constraint2_360  1
    RHS1      constraint2_361  1
    RHS1      constraint2_362  1
    RHS1      constraint2_363  1
    RHS1      constraint2_6190  1
    RHS1      constraint2_6191  1
    RHS1      constraint2_6192  1
    RHS1      constraint2_6193  1
    RHS1      constraint2_5040  1
    RHS1      constraint2_5041  1
    RHS1      constraint2_5042  1
    RHS1      constraint2_5043  1
    RHS1      constraint2_540  1
    RHS1      constraint2_541  1
    RHS1      constraint2_542  1
    RHS1      constraint2_543  1
    RHS1      constraint2_6990  1
    RHS1      constraint2_6991  1
    RHS1      constraint2_6992  1
    RHS1      constraint2_6993  1
    RHS1      constraint2_5350  1
    RHS1      constraint2_5351  1
    RHS1      constraint2_5352  1
    RHS1      constraint2_5353  1
    RHS1      constraint2_1010  1
    RHS1      constraint2_1011  1
    RHS1      constraint2_1012  1
    RHS1      constraint2_1013  1
    RHS1      constraint2_7280  1
    RHS1      constraint2_7281  1
    RHS1      constraint2_7282  1
    RHS1      constraint2_7283  1
    RHS1      constraint2_3340  1
    RHS1      constraint2_3341  1
    RHS1      constraint2_3342  1
    RHS1      constraint2_3343  1
    RHS1      constraint2_7270  1
    RHS1      constraint2_7271  1
    RHS1      constraint2_7272  1
    RHS1      constraint2_7273  1
    RHS1      constraint2_1850  1
    RHS1      constraint2_1851  1
    RHS1      constraint2_1852  1
    RHS1      constraint2_1853  1
    RHS1      constraint2_6070  1
    RHS1      constraint2_6071  1
    RHS1      constraint2_6072  1
    RHS1      constraint2_6073  1
    RHS1      constraint2_2460  1
    RHS1      constraint2_2461  1
    RHS1      constraint2_2462  1
    RHS1      constraint2_2463  1
BOUNDS
 UP BND1      Z_110_0_0  1
 UP BND1      Z_110_0_1  1
 UP BND1      Z_110_0_2  1
 UP BND1      Z_110_0_3  1
 UP BND1      Z_110_0_4  1
 UP BND1      Z_309_0_0  1
 UP BND1      Z_309_0_1  1
 UP BND1      Z_309_0_2  1
 UP BND1      Z_309_0_3  1
 UP BND1      Z_309_0_4  1
 UP BND1      Z_53_0_0  1
 UP BND1      Z_53_0_1  1
 UP BND1      Z_53_0_2  1
 UP BND1      Z_53_0_3  1
 UP BND1      Z_53_0_4  1
 UP BND1      Z_82_0_0  1
 UP BND1      Z_82_0_1  1
 UP BND1      Z_82_0_2  1
 UP BND1      Z_82_0_3  1
 UP BND1      Z_82_0_4  1
 UP BND1      Z_306_0_0  1
 UP BND1      Z_306_0_1  1
 UP BND1      Z_306_0_2  1
 UP BND1      Z_306_0_3  1
 UP BND1      Z_306_0_4  1
 UP BND1      Z_302_0_0  1
 UP BND1      Z_302_0_1  1
 UP BND1      Z_302_0_2  1
 UP BND1      Z_302_0_3  1
 UP BND1      Z_302_0_4  1
 UP BND1      Z_516_0_0  1
 UP BND1      Z_516_0_1  1
 UP BND1      Z_516_0_2  1
 UP BND1      Z_516_0_3  1
 UP BND1      Z_516_0_4  1
 UP BND1      Z_296_0_0  1
 UP BND1      Z_296_0_1  1
 UP BND1      Z_296_0_2  1
 UP BND1      Z_296_0_3  1
 UP BND1      Z_296_0_4  1
 UP BND1      Z_642_0_0  1
 UP BND1      Z_642_0_1  1
 UP BND1      Z_642_0_2  1
 UP BND1      Z_642_0_3  1
 UP BND1      Z_642_0_4  1
 UP BND1      Z_696_0_0  1
 UP BND1      Z_696_0_1  1
 UP BND1      Z_696_0_2  1
 UP BND1      Z_696_0_3  1
 UP BND1      Z_696_0_4  1
 UP BND1      Z_52_0_0  1
 UP BND1      Z_52_0_1  1
 UP BND1      Z_52_0_2  1
 UP BND1      Z_52_0_3  1
 UP BND1      Z_52_0_4  1
 UP BND1      Z_619_0_0  1
 UP BND1      Z_619_0_1  1
 UP BND1      Z_619_0_2  1
 UP BND1      Z_619_0_3  1
 UP BND1      Z_619_0_4  1
 UP BND1      Z_504_0_0  1
 UP BND1      Z_504_0_1  1
 UP BND1      Z_504_0_2  1
 UP BND1      Z_504_0_3  1
 UP BND1      Z_504_0_4  1
 UP BND1      Z_535_2_0  1
 UP BND1      Z_535_2_1  1
 UP BND1      Z_535_2_2  1
 UP BND1      Z_535_2_3  1
 UP BND1      Z_535_2_4  1
 UP BND1      Z_535_1_0  1
 UP BND1      Z_535_1_1  1
 UP BND1      Z_535_1_2  1
 UP BND1      Z_535_1_3  1
 UP BND1      Z_535_1_4  1
 UP BND1      Z_535_3_0  1
 UP BND1      Z_535_3_1  1
 UP BND1      Z_535_3_2  1
 UP BND1      Z_535_3_3  1
 UP BND1      Z_535_3_4  1
 UP BND1      Z_535_0_0  1
 UP BND1      Z_535_0_1  1
 UP BND1      Z_535_0_2  1
 UP BND1      Z_535_0_3  1
 UP BND1      Z_535_0_4  1
 UP BND1      Z_101_0_0  1
 UP BND1      Z_101_0_1  1
 UP BND1      Z_101_0_2  1
 UP BND1      Z_101_0_3  1
 UP BND1      Z_101_0_4  1
 UP BND1      Z_728_0_0  1
 UP BND1      Z_728_0_1  1
 UP BND1      Z_728_0_2  1
 UP BND1      Z_728_0_3  1
 UP BND1      Z_728_0_4  1
 UP BND1      Z_334_0_0  1
 UP BND1      Z_334_0_1  1
 UP BND1      Z_334_0_2  1
 UP BND1      Z_334_0_3  1
 UP BND1      Z_334_0_4  1
 UP BND1      Z_727_0_0  1
 UP BND1      Z_727_0_1  1
 UP BND1      Z_727_0_2  1
 UP BND1      Z_727_0_3  1
 UP BND1      Z_727_0_4  1
 UP BND1      Z_185_6_0  1
 UP BND1      Z_185_6_1  1
 UP BND1      Z_185_6_2  1
 UP BND1      Z_185_6_3  1
 UP BND1      Z_185_6_4  1
 UP BND1      Z_185_0_0  1
 UP BND1      Z_185_0_1  1
 UP BND1      Z_185_0_2  1
 UP BND1      Z_185_0_3  1
 UP BND1      Z_185_0_4  1
 UP BND1      Z_185_3_0  1
 UP BND1      Z_185_3_1  1
 UP BND1      Z_185_3_2  1
 UP BND1      Z_185_3_3  1
 UP BND1      Z_185_3_4  1
 UP BND1      Z_185_1_0  1
 UP BND1      Z_185_1_1  1
 UP BND1      Z_185_1_2  1
 UP BND1      Z_185_1_3  1
 UP BND1      Z_185_1_4  1
 UP BND1      Z_185_4_0  1
 UP BND1      Z_185_4_1  1
 UP BND1      Z_185_4_2  1
 UP BND1      Z_185_4_3  1
 UP BND1      Z_185_4_4  1
 UP BND1      Z_185_2_0  1
 UP BND1      Z_185_2_1  1
 UP BND1      Z_185_2_2  1
 UP BND1      Z_185_2_3  1
 UP BND1      Z_185_2_4  1
 UP BND1      Z_607_0_0  1
 UP BND1      Z_607_0_1  1
 UP BND1      Z_607_0_2  1
 UP BND1      Z_607_0_3  1
 UP BND1      Z_607_0_4  1
 UP BND1      Z_246_0_0  1
 UP BND1      Z_246_0_1  1
 UP BND1      Z_246_0_2  1
 UP BND1      Z_246_0_3  1
 UP BND1      Z_246_0_4  1
ENDATA
